networks/zoo_176_2723/zoo_176_2723-lower.txt
Number of groups: 85
Flow 6: {2 50 0} {50 52 0} {52 42 0} {42 15 0} {15 108 0} 
Flow 28: {44 5 0} {5 4 0} {4 3 0} {3 64 0} {64 157 0} 
Flow 135: {70 163 0} 
Flow 149: {6 3 0} {3 4 0} {4 97 0} 
Flow 151: {45 39 0} {39 49 0} {49 12 0} {12 8 0} {8 101 0} 
Flow 153: {6 5 0} {5 13 0} {13 11 0} {11 104 0} 
Flow 209: {7 50 0} {50 21 0} {21 20 0} {20 113 0} 
Flow 223: {8 12 0} 
Flow 233: {9 50 0} {50 143 0} 
Flow 253: {10 11 0} {11 46 0} {46 41 0} {41 134 0} 
Flow 263: {10 13 0} 
Flow 420: {15 51 0} {51 53 0} {53 146 0} 
Flow 460: {21 23 0} {23 116 0} 
Flow 547: {74 78 0} {78 81 0} {81 66 0} {66 159 0} 
Flow 632: {80 76 0} {76 24 0} {24 117 0} 
Flow 741: {23 19 0} {19 18 0} {18 111 0} 
Flow 743: {23 21 0} {21 114 0} 
Flow 796: {51 15 0} {15 42 0} {42 135 0} 
Flow 865: {26 24 0} {24 57 0} {57 27 0} {27 120 0} 
Flow 931: {30 12 0} {12 49 0} {49 142 0} 
Flow 945: {31 14 0} 
Flow 958: {33 68 0} {68 69 0} {69 25 0} {25 118 0} 
Flow 960: {68 14 0} {14 24 0} {24 35 0} {35 128 0} 
Flow 991: {34 24 0} 
Flow 1006: {35 58 0} {58 27 0} {27 59 0} {59 29 0} {29 37 0} {37 36 0} {36 129 0} 
Flow 1056: {36 37 0} {37 130 0} 
Flow 1068: {36 53 0} {53 51 0} {51 55 0} 
Flow 1111: {37 29 0} {29 51 0} {51 52 0} {52 145 0} 
Flow 1188: {41 46 0} {46 11 0} {11 10 0} {10 103 0} 
Flow 1190: {12 105 0} 
Flow 1211: {38 43 0} {43 136 0} 
Flow 1248: {40 41 0} {41 39 0} {39 132 0} 
Flow 1319: {42 52 0} {52 50 0} {50 9 0} {9 102 0} 
Flow 1353: {53 36 0} {36 56 0} {56 149 0} 
Flow 1375: {43 38 0} {38 49 0} {49 52 0} {52 51 0} 
Flow 1466: {47 46 0} {46 49 0} {49 38 0} {38 131 0} 
Flow 1477: {11 13 0} {13 5 0} {5 70 0} {70 71 0} {71 164 0} 
Flow 1537: {50 2 0} {2 95 0} 
Flow 1541: {49 50 0} {50 7 0} {7 100 0} 
Flow 1560: {12 30 0} {30 123 0} 
Flow 1563: {24 34 0} {34 127 0} 
Flow 1569: {39 41 0} {41 40 0} {40 133 0} 
Flow 1588: {59 27 0} {27 62 0} {62 155 0} 
Flow 1590: {65 158 0} 
Flow 1605: {79 80 0} {80 173 0} 
Flow 1609: {2 1 0} {1 94 0} 
Flow 1692: {29 122 0} 
Flow 1770: {52 49 0} {49 39 0} {39 45 0} {45 44 0} {44 137 0} 
Flow 1773: {51 61 0} {61 48 0} {48 141 0} 
Flow 1778: {37 54 0} {54 147 0} 
Flow 1781: {27 58 0} {58 151 0} 
Flow 1794: {75 74 0} {74 167 0} 
Flow 1799: {16 17 0} {17 22 0} {22 79 0} {79 172 0} 
Flow 1860: {55 51 0} {51 29 0} {29 59 0} {59 152 0} 
Flow 1861: {55 48 0} {48 61 0} {61 154 0} 
Flow 1900: {24 76 0} {76 77 0} {77 78 0} {78 171 0} 
Flow 1935: {58 35 0} {35 24 0} {24 25 0} {25 69 0} {69 162 0} 
Flow 1988: {60 27 0} 
Flow 2024: {48 55 0} {55 148 0} 
Flow 2035: {20 16 0} {16 18 0} {18 75 0} {75 168 0} 
Flow 2043: {62 27 0} {27 57 0} {57 24 0} {24 14 0} {14 107 0} 
Flow 2047: {63 61 0} {61 51 0} {51 144 0} 
Flow 2076: {4 5 0} {5 44 0} {44 45 0} {45 138 0} 
Flow 2090: {64 65 0} {65 71 0} {71 73 0} {73 67 0} {67 160 0} 
Flow 2141: {25 24 0} {24 26 0} {26 119 0} 
Flow 2168: {69 68 0} {68 161 0} 
Flow 2290: {71 72 0} {72 66 0} {66 81 0} {81 82 0} {82 175 0} 
Flow 2293: {73 71 0} {71 70 0} {70 5 0} {5 98 0} 
Flow 2295: {67 81 0} {81 78 0} {78 74 0} {74 75 0} {75 18 0} {18 16 0} {16 109 0} 
Flow 2332: {66 72 0} {72 165 0} 
Flow 2358: {33 32 0} {32 125 0} 
Flow 2359: {14 68 0} {68 33 0} {33 126 0} 
Flow 2378: {27 60 0} {60 153 0} 
Flow 2407: {76 80 0} {80 79 0} {79 22 0} {22 17 0} {17 110 0} 
Flow 2455: {72 71 0} {71 65 0} {65 64 0} {64 3 0} {3 96 0} 
Flow 2515: {77 170 0} 
Flow 2517: {81 174 0} 
Flow 2519: {78 83 0} {83 176 0} 
Flow 2540: {17 16 0} {16 20 0} {20 21 0} {21 50 0} {50 49 0} {49 46 0} {46 139 0} 
Flow 2671: {82 81 0} {81 67 0} {67 73 0} {73 166 0} 
Flow 2679: {82 83 0} 
Flow 2682: {13 10 0} 
Flow 2690: {18 19 0} {19 23 0} 
Flow 2718: {83 78 0} {78 77 0} {77 76 0} {76 169 0} 
Flow 2723: {83 82 0} 
Time taken running everything: 22 seconds
