networks/zoo_176_2723/zoo_176_2723-lower.sol
<?xml version = "1.0" encoding="UTF-8" standalone="yes"?>
<CPLEXSolution version="1.2">
 <header
   problemName="networks/zoo_176_2723/zoo_176_2723-lower.lp"
   solutionName="incumbent"
   solutionIndex="-1"
   objectiveValue="85"
   solutionTypeValue="3"
   solutionTypeString="primal"
   solutionStatusValue="101"
   solutionStatusString="integer optimal solution"
   solutionMethodString="mip"
   primalFeasible="1"
   dualFeasible="1"
   MIPNodes="0"
   MIPIterations="20"
   writeLevel="3"/>
 <quality
   epInt="1.0000000000000001e-05"
   epRHS="9.9999999999999995e-07"
   maxIntInfeas="0"
   maxPrimalInfeas="0"
   maxX="1"
   maxSlack="1"/>
 <variables>
  <variable name="Y(6,15)" index="794" value="1"/>
  <variable name="Y(28,64)" index="4274" value="1"/>
  <variable name="Y(135,70)" index="20972" value="1"/>
  <variable name="Y(149,4)" index="23091" value="1"/>
  <variable name="Y(151,8)" index="23407" value="1"/>
  <variable name="Y(153,11)" index="23722" value="1"/>
  <variable name="Y(209,20)" index="32467" value="1"/>
  <variable name="Y(223,8)" index="34639" value="1"/>
  <variable name="Y(233,50)" index="36240" value="1"/>
  <variable name="Y(253,41)" index="39351" value="1"/>
  <variable name="Y(263,10)" index="40881" value="1"/>
  <variable name="Y(420,53)" index="65415" value="1"/>
  <variable name="Y(460,23)" index="71626" value="1"/>
  <variable name="Y(547,66)" index="85240" value="1"/>
  <variable name="Y(632,24)" index="98459" value="1"/>
  <variable name="Y(741,18)" index="115457" value="1"/>
  <variable name="Y(743,21)" index="115772" value="1"/>
  <variable name="Y(796,42)" index="124060" value="1"/>
  <variable name="Y(865,27)" index="134810" value="1"/>
  <variable name="Y(931,49)" index="145127" value="1"/>
  <variable name="Y(945,31)" index="147293" value="1"/>
  <variable name="Y(958,25)" index="149316" value="1"/>
  <variable name="Y(960,35)" index="149637" value="1"/>
  <variable name="Y(991,34)" index="154472" value="1"/>
  <variable name="Y(1006,36)" index="156814" value="1"/>
  <variable name="Y(1056,37)" index="164615" value="1"/>
  <variable name="Y(1068,51)" index="166501" value="1"/>
  <variable name="Y(1111,52)" index="173210" value="1"/>
  <variable name="Y(1188,10)" index="185181" value="1"/>
  <variable name="Y(1190,12)" index="185495" value="1"/>
  <variable name="Y(1211,43)" index="188801" value="1"/>
  <variable name="Y(1248,39)" index="194569" value="1"/>
  <variable name="Y(1319,9)" index="205616" value="1"/>
  <variable name="Y(1353,56)" index="210966" value="1"/>
  <variable name="Y(1375,52)" index="214394" value="1"/>
  <variable name="Y(1466,38)" index="228576" value="1"/>
  <variable name="Y(1477,71)" index="230325" value="1"/>
  <variable name="Y(1537,2)" index="239617" value="1"/>
  <variable name="Y(1541,7)" index="240246" value="1"/>
  <variable name="Y(1560,30)" index="243232" value="1"/>
  <variable name="Y(1563,34)" index="243704" value="1"/>
  <variable name="Y(1569,40)" index="244646" value="1"/>
  <variable name="Y(1588,62)" index="247632" value="1"/>
  <variable name="Y(1590,65)" index="247947" value="1"/>
  <variable name="Y(1605,80)" index="250302" value="1"/>
  <variable name="Y(1609,1)" index="250848" value="1"/>
  <variable name="Y(1692,29)" index="263823" value="1"/>
  <variable name="Y(1770,44)" index="276006" value="1"/>
  <variable name="Y(1773,48)" index="276478" value="1"/>
  <variable name="Y(1778,54)" index="277264" value="1"/>
  <variable name="Y(1781,58)" index="277736" value="1"/>
  <variable name="Y(1794,74)" index="279780" value="1"/>
  <variable name="Y(1799,79)" index="280565" value="1"/>
  <variable name="Y(1860,59)" index="290061" value="1"/>
  <variable name="Y(1861,61)" index="290219" value="1"/>
  <variable name="Y(1900,78)" index="296320" value="1"/>
  <variable name="Y(1935,69)" index="301771" value="1"/>
  <variable name="Y(1988,60)" index="310030" value="1"/>
  <variable name="Y(2024,55)" index="315641" value="1"/>
  <variable name="Y(2035,75)" index="317377" value="1"/>
  <variable name="Y(2043,14)" index="318565" value="1"/>
  <variable name="Y(2047,51)" index="319225" value="1"/>
  <variable name="Y(2076,45)" index="323743" value="1"/>
  <variable name="Y(2090,67)" index="325949" value="1"/>
  <variable name="Y(2141,26)" index="333865" value="1"/>
  <variable name="Y(2168,68)" index="338118" value="1"/>
  <variable name="Y(2290,82)" index="357164" value="1"/>
  <variable name="Y(2293,5)" index="357556" value="1"/>
  <variable name="Y(2295,16)" index="357879" value="1"/>
  <variable name="Y(2332,72)" index="363706" value="1"/>
  <variable name="Y(2358,32)" index="367722" value="1"/>
  <variable name="Y(2359,33)" index="367879" value="1"/>
  <variable name="Y(2378,60)" index="370870" value="1"/>
  <variable name="Y(2407,17)" index="375352" value="1"/>
  <variable name="Y(2455,3)" index="382826" value="1"/>
  <variable name="Y(2515,77)" index="392259" value="1"/>
  <variable name="Y(2517,81)" index="392575" value="1"/>
  <variable name="Y(2519,83)" index="392889" value="1"/>
  <variable name="Y(2540,46)" index="396128" value="1"/>
  <variable name="Y(2671,73)" index="416591" value="1"/>
  <variable name="Y(2679,82)" index="417848" value="1"/>
  <variable name="Y(2682,13)" index="418248" value="1"/>
  <variable name="Y(2690,19)" index="419502" value="1"/>
  <variable name="Y(2718,76)" index="423926" value="1"/>
  <variable name="Y(2723,83)" index="424713" value="1"/>
  <variable name="X(1,94,1609)" index="426396" value="1"/>
  <variable name="X(2,1,1609)" index="429119" value="1"/>
  <variable name="X(2,50,6)" index="430239" value="1"/>
  <variable name="X(2,95,1537)" index="434493" value="1"/>
  <variable name="X(3,4,149)" index="435828" value="1"/>
  <variable name="X(3,64,28)" index="438430" value="1"/>
  <variable name="X(3,96,2455)" index="443580" value="1"/>
  <variable name="X(4,3,28)" index="443876" value="1"/>
  <variable name="X(4,5,2076)" index="448647" value="1"/>
  <variable name="X(4,97,149)" index="449443" value="1"/>
  <variable name="X(5,4,28)" index="452045" value="1"/>
  <variable name="X(5,13,153)" index="454893" value="1"/>
  <variable name="X(5,44,2076)" index="459539" value="1"/>
  <variable name="X(5,70,1477)" index="461663" value="1"/>
  <variable name="X(5,98,2293)" index="465202" value="1"/>
  <variable name="X(6,3,149)" index="465781" value="1"/>
  <variable name="X(6,5,153)" index="468508" value="1"/>
  <variable name="X(7,50,209)" index="471287" value="1"/>
  <variable name="X(7,100,1541)" index="475342" value="1"/>
  <variable name="X(8,12,223)" index="476747" value="1"/>
  <variable name="X(8,101,151)" index="479398" value="1"/>
  <variable name="X(9,50,233)" index="482203" value="1"/>
  <variable name="X(9,102,1319)" index="486012" value="1"/>
  <variable name="X(10,11,253)" index="487669" value="1"/>
  <variable name="X(10,13,263)" index="490402" value="1"/>
  <variable name="X(10,103,1188)" index="494050" value="1"/>
  <variable name="X(11,10,1188)" index="496773" value="1"/>
  <variable name="X(11,13,1477)" index="499785" value="1"/>
  <variable name="X(11,46,253)" index="501284" value="1"/>
  <variable name="X(11,104,153)" index="503907" value="1"/>
  <variable name="X(12,8,151)" index="506628" value="1"/>
  <variable name="X(12,30,1560)" index="510760" value="1"/>
  <variable name="X(12,49,931)" index="512854" value="1"/>
  <variable name="X(12,105,1190)" index="515836" value="1"/>
  <variable name="X(13,5,1477)" index="518846" value="1"/>
  <variable name="X(13,10,2682)" index="522774" value="1"/>
  <variable name="X(13,11,153)" index="522968" value="1"/>
  <variable name="X(14,24,960)" index="526498" value="1"/>
  <variable name="X(14,68,2359)" index="530620" value="1"/>
  <variable name="X(14,107,2043)" index="533027" value="1"/>
  <variable name="X(15,42,796)" index="534503" value="1"/>
  <variable name="X(15,51,420)" index="536850" value="1"/>
  <variable name="X(15,108,6)" index="539159" value="1"/>
  <variable name="X(16,17,1799)" index="543675" value="1"/>
  <variable name="X(16,18,2035)" index="546634" value="1"/>
  <variable name="X(16,20,2540)" index="549862" value="1"/>
  <variable name="X(16,109,2295)" index="552340" value="1"/>
  <variable name="X(17,16,2540)" index="555308" value="1"/>
  <variable name="X(17,22,1799)" index="557290" value="1"/>
  <variable name="X(17,110,2407)" index="560621" value="1"/>
  <variable name="X(18,16,2295)" index="563232" value="1"/>
  <variable name="X(18,19,2690)" index="566350" value="1"/>
  <variable name="X(18,75,2035)" index="568418" value="1"/>
  <variable name="X(18,111,741)" index="569847" value="1"/>
  <variable name="X(19,18,741)" index="572570" value="1"/>
  <variable name="X(19,23,2690)" index="577242" value="1"/>
  <variable name="X(20,16,2035)" index="579310" value="1"/>
  <variable name="X(20,21,2540)" index="582538" value="1"/>
  <variable name="X(20,113,209)" index="582930" value="1"/>
  <variable name="X(21,20,209)" index="585653" value="1"/>
  <variable name="X(21,23,460)" index="588627" value="1"/>
  <variable name="X(21,50,2540)" index="593430" value="1"/>
  <variable name="X(21,114,743)" index="594356" value="1"/>
  <variable name="X(22,17,2407)" index="598743" value="1"/>
  <variable name="X(22,79,1799)" index="600858" value="1"/>
  <variable name="X(23,19,741)" index="602523" value="1"/>
  <variable name="X(23,21,743)" index="605248" value="1"/>
  <variable name="X(23,116,460)" index="607688" value="1"/>
  <variable name="X(24,14,2043)" index="611994" value="1"/>
  <variable name="X(24,25,1935)" index="614609" value="1"/>
  <variable name="X(24,26,2141)" index="617538" value="1"/>
  <variable name="X(24,34,1563)" index="619683" value="1"/>
  <variable name="X(24,35,960)" index="621803" value="1"/>
  <variable name="X(24,57,865)" index="624431" value="1"/>
  <variable name="X(24,76,1900)" index="628189" value="1"/>
  <variable name="X(24,117,632)" index="629644" value="1"/>
  <variable name="X(25,24,2141)" index="633876" value="1"/>
  <variable name="X(25,69,1935)" index="636393" value="1"/>
  <variable name="X(25,118,958)" index="638139" value="1"/>
  <variable name="X(26,24,865)" index="640769" value="1"/>
  <variable name="X(26,119,2141)" index="644768" value="1"/>
  <variable name="X(27,57,2043)" index="647393" value="1"/>
  <variable name="X(27,58,1781)" index="649854" value="1"/>
  <variable name="X(27,59,1006)" index="651802" value="1"/>
  <variable name="X(27,60,2378)" index="655897" value="1"/>
  <variable name="X(27,62,1588)" index="657830" value="1"/>
  <variable name="X(27,120,865)" index="659830" value="1"/>
  <variable name="X(29,37,1006)" index="662694" value="1"/>
  <variable name="X(29,51,1111)" index="665522" value="1"/>
  <variable name="X(29,59,1860)" index="668994" value="1"/>
  <variable name="X(29,122,1692)" index="671549" value="1"/>
  <variable name="X(30,12,931)" index="673511" value="1"/>
  <variable name="X(30,123,1560)" index="676863" value="1"/>
  <variable name="X(31,14,945)" index="678971" value="1"/>
  <variable name="X(32,125,2358)" index="683107" value="1"/>
  <variable name="X(33,32,2358)" index="685830" value="1"/>
  <variable name="X(33,68,958)" index="687153" value="1"/>
  <variable name="X(33,126,2359)" index="691277" value="1"/>
  <variable name="X(34,24,991)" index="692632" value="1"/>
  <variable name="X(34,127,1563)" index="695927" value="1"/>
  <variable name="X(35,24,1935)" index="699022" value="1"/>
  <variable name="X(35,58,1006)" index="700816" value="1"/>
  <variable name="X(35,128,960)" index="703493" value="1"/>
  <variable name="X(36,37,1056)" index="706312" value="1"/>
  <variable name="X(36,53,1068)" index="709047" value="1"/>
  <variable name="X(36,56,1353)" index="712055" value="1"/>
  <variable name="X(36,129,1006)" index="714431" value="1"/>
  <variable name="X(37,29,1111)" index="717259" value="1"/>
  <variable name="X(37,36,1006)" index="719877" value="1"/>
  <variable name="X(37,54,1778)" index="723372" value="1"/>
  <variable name="X(37,130,1056)" index="725373" value="1"/>
  <variable name="X(38,43,1211)" index="728251" value="1"/>
  <variable name="X(38,49,1375)" index="731138" value="1"/>
  <variable name="X(38,131,1466)" index="733952" value="1"/>
  <variable name="X(39,41,1569)" index="736778" value="1"/>
  <variable name="X(39,45,1770)" index="739702" value="1"/>
  <variable name="X(39,49,151)" index="740806" value="1"/>
  <variable name="X(39,132,1248)" index="744626" value="1"/>
  <variable name="X(40,41,1248)" index="747349" value="1"/>
  <variable name="X(40,133,1569)" index="750393" value="1"/>
  <variable name="X(41,39,1248)" index="752795" value="1"/>
  <variable name="X(41,40,1569)" index="755839" value="1"/>
  <variable name="X(41,46,1188)" index="758181" value="1"/>
  <variable name="X(41,134,253)" index="759969" value="1"/>
  <variable name="X(42,15,6)" index="762445" value="1"/>
  <variable name="X(42,52,1319)" index="766481" value="1"/>
  <variable name="X(42,135,796)" index="768681" value="1"/>
  <variable name="X(43,38,1375)" index="771983" value="1"/>
  <variable name="X(43,136,1211)" index="774542" value="1"/>
  <variable name="X(44,5,28)" index="776082" value="1"/>
  <variable name="X(44,45,2076)" index="780853" value="1"/>
  <variable name="X(44,137,1770)" index="783270" value="1"/>
  <variable name="X(45,39,151)" index="784374" value="1"/>
  <variable name="X(45,44,1770)" index="788716" value="1"/>
  <variable name="X(45,138,2076)" index="791745" value="1"/>
  <variable name="X(46,11,1188)" index="793580" value="1"/>
  <variable name="X(46,41,253)" index="795368" value="1"/>
  <variable name="X(46,49,1466)" index="799304" value="1"/>
  <variable name="X(46,139,2540)" index="803101" value="1"/>
  <variable name="X(47,46,1466)" index="804750" value="1"/>
  <variable name="X(48,55,2024)" index="808031" value="1"/>
  <variable name="X(48,61,1861)" index="810591" value="1"/>
  <variable name="X(48,141,1773)" index="813226" value="1"/>
  <variable name="X(49,12,151)" index="814327" value="1"/>
  <variable name="X(49,38,1466)" index="818365" value="1"/>
  <variable name="X(49,39,1770)" index="821392" value="1"/>
  <variable name="X(49,46,2540)" index="824885" value="1"/>
  <variable name="X(49,50,1541)" index="826609" value="1"/>
  <variable name="X(49,52,1375)" index="829166" value="1"/>
  <variable name="X(49,142,931)" index="831445" value="1"/>
  <variable name="X(50,2,1537)" index="834774" value="1"/>
  <variable name="X(50,7,1541)" index="837501" value="1"/>
  <variable name="X(50,9,1319)" index="840002" value="1"/>
  <variable name="X(50,21,209)" index="841615" value="1"/>
  <variable name="X(50,49,2540)" index="846669" value="1"/>
  <variable name="X(50,52,6)" index="846858" value="1"/>
  <variable name="X(50,143,233)" index="849808" value="1"/>
  <variable name="X(51,15,796)" index="853094" value="1"/>
  <variable name="X(51,29,1860)" index="856881" value="1"/>
  <variable name="X(51,52,1111)" index="858855" value="1"/>
  <variable name="X(51,53,420)" index="860887" value="1"/>
  <variable name="X(51,55,1068)" index="864258" value="1"/>
  <variable name="X(51,61,1773)" index="867686" value="1"/>
  <variable name="X(51,144,2047)" index="870683" value="1"/>
  <variable name="X(52,42,6)" index="871365" value="1"/>
  <variable name="X(52,49,1770)" index="875852" value="1"/>
  <variable name="X(52,50,1319)" index="878124" value="1"/>
  <variable name="X(52,51,1375)" index="880903" value="1"/>
  <variable name="X(52,145,1111)" index="883362" value="1"/>
  <variable name="X(53,36,1353)" index="886327" value="1"/>
  <variable name="X(53,51,1068)" index="888765" value="1"/>
  <variable name="X(53,146,420)" index="890840" value="1"/>
  <variable name="X(54,147,1778)" index="894921" value="1"/>
  <variable name="X(55,48,1861)" index="897727" value="1"/>
  <variable name="X(55,51,1860)" index="900449" value="1"/>
  <variable name="X(55,148,2024)" index="903336" value="1"/>
  <variable name="X(56,149,1353)" index="905388" value="1"/>
  <variable name="X(57,24,2043)" index="908801" value="1"/>
  <variable name="X(57,27,865)" index="910346" value="1"/>
  <variable name="X(58,27,1006)" index="913210" value="1"/>
  <variable name="X(58,35,1935)" index="916862" value="1"/>
  <variable name="X(58,151,1781)" index="919431" value="1"/>
  <variable name="X(59,27,1588)" index="921961" value="1"/>
  <variable name="X(59,29,1006)" index="924102" value="1"/>
  <variable name="X(59,152,1860)" index="927679" value="1"/>
  <variable name="X(60,27,1988)" index="930530" value="1"/>
  <variable name="X(60,153,2378)" index="933643" value="1"/>
  <variable name="X(61,48,1773)" index="935761" value="1"/>
  <variable name="X(61,51,2047)" index="938758" value="1"/>
  <variable name="X(61,154,1861)" index="941295" value="1"/>
  <variable name="X(62,27,2043)" index="944200" value="1"/>
  <variable name="X(62,155,1588)" index="946468" value="1"/>
  <variable name="X(63,61,2047)" index="949650" value="1"/>
  <variable name="X(64,3,2455)" index="952781" value="1"/>
  <variable name="X(64,65,2090)" index="955139" value="1"/>
  <variable name="X(64,157,28)" index="955800" value="1"/>
  <variable name="X(65,64,2455)" index="960950" value="1"/>
  <variable name="X(65,71,2090)" index="963308" value="1"/>
  <variable name="X(65,158,1590)" index="965531" value="1"/>
  <variable name="X(66,72,2332)" index="968996" value="1"/>
  <variable name="X(66,81,2290)" index="971677" value="1"/>
  <variable name="X(66,159,547)" index="972657" value="1"/>
  <variable name="X(67,73,2671)" index="977504" value="1"/>
  <variable name="X(67,81,2295)" index="979851" value="1"/>
  <variable name="X(67,160,2090)" index="982369" value="1"/>
  <variable name="X(68,14,960)" index="983962" value="1"/>
  <variable name="X(68,33,2359)" index="988084" value="1"/>
  <variable name="X(68,69,958)" index="989406" value="1"/>
  <variable name="X(68,161,2168)" index="993339" value="1"/>
  <variable name="X(69,25,958)" index="994852" value="1"/>
  <variable name="X(69,68,2168)" index="998785" value="1"/>
  <variable name="X(69,162,1935)" index="1001275" value="1"/>
  <variable name="X(70,5,2293)" index="1004356" value="1"/>
  <variable name="X(70,71,1477)" index="1006263" value="1"/>
  <variable name="X(70,163,135)" index="1007644" value="1"/>
  <variable name="X(71,65,2455)" index="1012687" value="1"/>
  <variable name="X(71,70,2293)" index="1015248" value="1"/>
  <variable name="X(71,72,2290)" index="1017968" value="1"/>
  <variable name="X(71,73,2090)" index="1020491" value="1"/>
  <variable name="X(71,164,1477)" index="1022601" value="1"/>
  <variable name="X(72,66,2290)" index="1026137" value="1"/>
  <variable name="X(72,71,2455)" index="1029025" value="1"/>
  <variable name="X(72,165,2332)" index="1031625" value="1"/>
  <variable name="X(73,67,2090)" index="1034106" value="1"/>
  <variable name="X(73,71,2293)" index="1037032" value="1"/>
  <variable name="X(73,166,2671)" index="1040133" value="1"/>
  <variable name="X(74,75,2295)" index="1042480" value="1"/>
  <variable name="X(74,78,547)" index="1043455" value="1"/>
  <variable name="X(74,167,1794)" index="1047425" value="1"/>
  <variable name="X(75,18,2295)" index="1050649" value="1"/>
  <variable name="X(75,74,1794)" index="1052871" value="1"/>
  <variable name="X(75,168,2035)" index="1055835" value="1"/>
  <variable name="X(76,24,632)" index="1057155" value="1"/>
  <variable name="X(76,77,1900)" index="1061146" value="1"/>
  <variable name="X(76,80,2407)" index="1064376" value="1"/>
  <variable name="X(76,169,2718)" index="1067410" value="1"/>
  <variable name="X(77,76,2718)" index="1070133" value="1"/>
  <variable name="X(77,78,1900)" index="1072038" value="1"/>
  <variable name="X(77,170,2515)" index="1075376" value="1"/>
  <variable name="X(78,74,2295)" index="1077879" value="1"/>
  <variable name="X(78,77,2718)" index="1081025" value="1"/>
  <variable name="X(78,81,547)" index="1081577" value="1"/>
  <variable name="X(78,83,2519)" index="1086272" value="1"/>
  <variable name="X(78,171,1900)" index="1088376" value="1"/>
  <variable name="X(79,22,2407)" index="1091606" value="1"/>
  <variable name="X(79,80,1605)" index="1093527" value="1"/>
  <variable name="X(79,172,1799)" index="1096444" value="1"/>
  <variable name="X(80,76,632)" index="1098000" value="1"/>
  <variable name="X(80,79,2407)" index="1102498" value="1"/>
  <variable name="X(80,173,1605)" index="1104419" value="1"/>
  <variable name="X(81,66,547)" index="1106084" value="1"/>
  <variable name="X(81,67,2671)" index="1110931" value="1"/>
  <variable name="X(81,78,2295)" index="1113278" value="1"/>
  <variable name="X(81,82,2290)" index="1115996" value="1"/>
  <variable name="X(81,174,2517)" index="1118946" value="1"/>
  <variable name="X(82,81,2671)" index="1121823" value="1"/>
  <variable name="X(82,83,2679)" index="1124554" value="1"/>
  <variable name="X(82,175,2290)" index="1126888" value="1"/>
  <variable name="X(83,78,2718)" index="1130039" value="1"/>
  <variable name="X(83,82,2723)" index="1132767" value="1"/>
  <variable name="X(83,176,2519)" index="1135286" value="1"/>
 </variables>
</CPLEXSolution>
